RT is False
Default write of storage_offers_DA.csv just to have a file (but constraint should be inactive)
Reading model...
...model read.
creating competitive generators file...
...competitive generators recorded.
Loading data...
.. day-ahead data read.
Compiling instance...
...instance created.
Creating Offer Mitigation (model will solve as dispatch if TRUE)...
NOTE: storage offers will not be mitigated
...storage offer mitigation file created
Converting model to MPEC...
...converted
NOTE: initial MIP solve with only storage competitive to get feasible solution
Solving...

Welcome to IBM(R) ILOG(R) CPLEX(R) Interactive Optimizer 12.9.0.0
  with Simplex, Mixed Integer & Barrier Optimizers
5725-A06 5725-A29 5724-Y48 5724-Y49 5724-Y54 5724-Y55 5655-Y21
Copyright IBM Corp. 1988, 2019.  All Rights Reserved.

Type 'help' for a list of available commands.
Type 'help' followed by a command name for more
information on commands.

CPLEX> Logfile 'cplex.log' closed.
Logfile 'C:\Users\Luke\Desktop\competitiveMPEC_12.6\logs\tmpne1xsuj9.cplex.log' open.
CPLEX> New value for parallel optimization mode: -1
CPLEX> New value for mixed integer optimality gap tolerance: 0.01
CPLEX> New value for integrality tolerance: 1e-09
CPLEX> New value for feasibility tolerance: 0.01
CPLEX> New value for deterministic time limit in ticks: 175000
CPLEX> Problem 'C:\Users\Luke\Desktop\competitiveMPEC_12.6\logs\tmpmt9gcvsg.pyomo.lp' read.
Read time = 0.22 sec. (14.73 ticks)
CPLEX> Problem name         : C:\Users\Luke\Desktop\competitiveMPEC_12.6\logs\tmpmt9gcvsg.pyomo.lp
Objective sense      : Maximize
Variables            :   53805  [Nneg: 1,  Box: 22000,  Free: 4464,
                                 Binary: 27340]
Objective nonzeros   :    8939
Linear constraints   :  123205  [Less: 41346,  Greater: 59096,  Equal: 22763]
  Nonzeros           :  291760
  RHS nonzeros       :   67450

Variables            : Min LB: -5000.000        Max UB: 1000000.       
Objective nonzeros   : Min   : 0.6000000        Max   : 789.9000       
Linear constraints   :
  Nonzeros           : Min   : 0.6000000        Max   : 1000000.       
  RHS nonzeros       : Min   : 0.6000000        Max   : 1000000.       
CPLEX> CPXPARAM_Parallel                                -1
CPXPARAM_Simplex_Tolerances_Feasibility          0.01
CPXPARAM_DetTimeLimit                            175000
CPXPARAM_MIP_Tolerances_MIPGap                   0.01
CPXPARAM_MIP_Tolerances_Integrality              1.0000000000000001e-09
Tried aggregator 4 times.
MIP Presolve eliminated 88935 rows and 19209 columns.
MIP Presolve added 3353 rows and 0 columns.
MIP Presolve modified 24749 coefficients.
Aggregator did 12980 substitutions.
Reduced MIP has 24643 rows, 21034 columns, and 70397 nonzeros.
Reduced MIP has 8296 binaries, 0 generals, 0 SOSs, and 0 indicators.
Presolve time = 0.27 sec. (196.04 ticks)
Probing fixed 429 vars, tightened 2870 bounds.
Probing time = 1.44 sec. (918.53 ticks)
Tried aggregator 2 times.
MIP Presolve eliminated 953 rows and 859 columns.
MIP Presolve modified 2151 coefficients.
Aggregator did 59 substitutions.
Reduced MIP has 23631 rows, 20116 columns, and 67450 nonzeros.
Reduced MIP has 7867 binaries, 0 generals, 0 SOSs, and 0 indicators.
Presolve time = 0.09 sec. (70.59 ticks)
Probing time = 0.03 sec. (15.33 ticks)
Clique table members: 6400.
MIP emphasis: balance optimality and feasibility.
MIP search method: dynamic search.
Parallel mode: opportunistic, using up to 24 threads.
Root relaxation solution time = 0.47 sec. (538.50 ticks)

        Nodes                                         Cuts/
   Node  Left     Objective  IInf  Best Integer    Best Bound    ItCnt     Gap

      0     0     7723.1231   624                   7723.1231     6353         
*     0     0      integral     0     7723.1231     7723.1231     6353    0.00%
Elapsed time = 3.97 sec. (2986.57 ticks, tree = 0.01 MB, solutions = 1)

Root node processing (before b&c):
  Real time             =    3.98 sec. (2988.51 ticks)
Parallel b&c, 24 threads:
  Real time             =    0.00 sec. (0.00 ticks)
  Sync time (average)   =    0.00 sec.
  Wait time (average)   =    0.00 sec.
                          ------------
Total (root+branch&cut) =    3.98 sec. (2988.51 ticks)

Solution pool: 1 solution saved.

MIP - Integer optimal solution:  Objective =  7.7231230578e+03
Solution time =    3.98 sec.  Iterations = 6353  Nodes = 0
Deterministic time = 2988.66 ticks  (750.17 ticks/sec)

CPLEX> Incumbent solution written to file 'C:\Users\Luke\Desktop\competitiveMPEC_12.6\logs\tmpc98_qrfe.cplex.sol'.
CPLEX> NOTE: no warmstart specified for MIP iteration, default behavior is true
NOTE: resolving with all competitive generators using storage-only solution to warmstart
Solving...

Welcome to IBM(R) ILOG(R) CPLEX(R) Interactive Optimizer 12.9.0.0
  with Simplex, Mixed Integer & Barrier Optimizers
5725-A06 5725-A29 5724-Y48 5724-Y49 5724-Y54 5724-Y55 5655-Y21
Copyright IBM Corp. 1988, 2019.  All Rights Reserved.

Type 'help' for a list of available commands.
Type 'help' followed by a command name for more
information on commands.

CPLEX> Logfile 'cplex.log' closed.
Logfile 'C:\Users\Luke\Desktop\competitiveMPEC_12.6\logs\tmpo8u95e9n.cplex.log' open.
CPLEX> New value for parallel optimization mode: -1
CPLEX> New value for mixed integer optimality gap tolerance: 0.01
CPLEX> New value for integrality tolerance: 1e-09
CPLEX> New value for feasibility tolerance: 0.01
CPLEX> New value for deterministic time limit in ticks: 175000
CPLEX> Problem 'C:\Users\Luke\Desktop\competitiveMPEC_12.6\logs\tmp981h5ir6.pyomo.lp' read.
Read time = 0.20 sec. (14.75 ticks)
CPLEX> MIP start file 'C:\Users\Luke\Desktop\competitiveMPEC_12.6\logs\tmpdmqp1wh_.cplex.mst' read.
CPLEX> Problem name         : C:\Users\Luke\Desktop\competitiveMPEC_12.6\logs\tmp981h5ir6.pyomo.lp
Objective sense      : Maximize
Variables            :   54525  [Nneg: 1,  Box: 22720,  Free: 4464,
                                 Binary: 27340]
Objective nonzeros   :    9636
Linear constraints   :  123205  [Less: 41346,  Greater: 59096,  Equal: 22763]
  Nonzeros           :  291760
  RHS nonzeros       :   67450

Variables            : Min LB: -5000.000        Max UB: 1000000.       
Objective nonzeros   : Min   : 0.6000000        Max   : 789.9000       
Linear constraints   :
  Nonzeros           : Min   : 0.6000000        Max   : 1000000.       
  RHS nonzeros       : Min   : 0.6000000        Max   : 1000000.       
CPLEX> CPXPARAM_Parallel                                -1
CPXPARAM_Simplex_Tolerances_Feasibility          0.01
CPXPARAM_DetTimeLimit                            175000
CPXPARAM_MIP_Tolerances_MIPGap                   0.01
CPXPARAM_MIP_Tolerances_Integrality              1.0000000000000001e-09
Warning:  No solution found from 1 MIP starts.
Retaining values of one MIP start for possible repair.
Tried aggregator 4 times.
MIP Presolve eliminated 88935 rows and 19929 columns.
MIP Presolve added 3353 rows and 0 columns.
MIP Presolve modified 24749 coefficients.
Aggregator did 12980 substitutions.
Reduced MIP has 24643 rows, 21034 columns, and 70397 nonzeros.
Reduced MIP has 8296 binaries, 0 generals, 0 SOSs, and 0 indicators.
Presolve time = 0.25 sec. (196.46 ticks)
Probing fixed 429 vars, tightened 2870 bounds.
Probing time = 1.45 sec. (918.53 ticks)
Tried aggregator 2 times.
MIP Presolve eliminated 953 rows and 859 columns.
MIP Presolve modified 2151 coefficients.
Aggregator did 59 substitutions.
Reduced MIP has 23631 rows, 20116 columns, and 67450 nonzeros.
Reduced MIP has 7867 binaries, 0 generals, 0 SOSs, and 0 indicators.
Presolve time = 0.09 sec. (70.60 ticks)
Probing time = 0.03 sec. (15.33 ticks)
Clique table members: 6400.
MIP emphasis: balance optimality and feasibility.
MIP search method: dynamic search.
Parallel mode: opportunistic, using up to 24 threads.
Root relaxation solution time = 0.34 sec. (283.20 ticks)

        Nodes                                         Cuts/
   Node  Left     Objective  IInf  Best Integer    Best Bound    ItCnt     Gap

      0     0    39188.7867  1632                  39188.7867     6039         
      0     0    38715.9987   584                   Cuts: 488     6294         
      0     0    38593.4531   496                   Cuts: 208     6395         
      0     0    38593.4531   466                   Cuts: 106     6458         
      0     0    38593.4531   438                    Cuts: 60     6491         
      0     0    38481.0034   424                    Cuts: 45     6511         
      0     0    38481.0034   412                    Cuts: 45     6528         
      0     0    38481.0034   407                    Cuts: 39     6546         
      0     0    38481.0034   405                    Cuts: 33     6561         
Repair heuristic found nothing.
      0    13    26069.3972   376                    Cuts: 15     6679         
Elapsed time = 9.89 sec. (6572.18 ticks, tree = 0.02 MB, solutions = 0)
    322    43    33926.5877   383                  37643.3685     7026         
    751   495    27126.3637   339                  37643.3685    11305         
   1381   713    26780.1518   329                  37643.3685    14325         
   2199  1118    27307.8937   336                  37643.3685    15938         
   3109  1769    23437.3219   323                  37643.3685    16930         
   3915  4361    27270.9899   323                  37643.3685    17550         
   4796  3417    26780.1518   300                  37643.3685    17489         
*  5500+ 4066                        26807.9907    37643.3685            40.42%
   6408  5136    34386.7204   334    26807.9907    37643.3685    17712   40.42%
*  8309  4033      integral     0    32040.1449    37643.3685    18776   17.49%
*  8633  4069      integral     0    35754.2244    37643.3685    19000    5.28%
   8643   572        cutoff          35754.2244    36972.2973    29452    3.41%
Elapsed time = 27.94 sec. (15729.92 ticks, tree = 5.20 MB, solutions = 13)
*  8862    28      integral     0    36348.3080    36348.3080    30005    0.00%
*  9143    36      integral     0    36348.3080    36348.3080    30634    0.00%
   9156    86    36284.1038     1    36348.3080    36348.3080    30482    0.00%

GUB cover cuts applied:  2
Clique cuts applied:  8
Cover cuts applied:  14
Implied bound cuts applied:  21
Flow cuts applied:  89
Mixed integer rounding cuts applied:  53
Gomory fractional cuts applied:  63

Root node processing (before b&c):
  Real time             =    9.37 sec. (6545.48 ticks)
Parallel b&c, 24 threads:
  Real time             =   19.80 sec. (10289.12 ticks)
  Sync time (average)   =    1.86 sec.
  Wait time (average)   =    0.07 sec.
                          ------------
Total (root+branch&cut) =   29.17 sec. (16834.60 ticks)

Solution pool: 20 solutions saved.

MIP - Integer optimal solution:  Objective =  3.6348307986e+04
Solution time =   29.17 sec.  Iterations = 33168  Nodes = 9179
Deterministic time = 16834.75 ticks  (577.09 ticks/sec)

CPLEX> Incumbent solution written to file 'C:\Users\Luke\Desktop\competitiveMPEC_12.6\logs\tmpxvhjg43e.cplex.sol'.
CPLEX> Exporting results... 
